TC_ILP/ewf_1.0.lp
Minimize
M1 + M2
Subject To
x0,17 = 1
x1,15 + x1,16 + x1,17 = 1
x2,16 = 1
x3,15 = 1
x4,14 = 1
x5,12 = 1
x6,12 = 1
x7,11 = 1
x8,11 = 1
x9,10 = 1
x10,2 + x10,3 + x10,4 + x10,5 + x10,6 + x10,7 + x10,8 + x10,9 + x10,10 = 1
x11,10 = 1
x12,8 = 1
x13,1 + x13,2 + x13,3 + x13,4 + x13,5 + x13,6 + x13,7 + x13,8 + x13,9 = 1
x14,8 = 1
x15,7 = 1
x16,7 = 1
x17,5 + x17,6 = 1
x18,6 = 1
x19,6 = 1
x20,4 + x20,5 + x20,6 = 1
x21,3 + x21,4 = 1
x22,5 = 1
x23,5 = 1
x24,2 + x24,3 + x24,4 = 1
x25,2 + x25,3 = 1
x26,3 = 1
x27,3 = 1
x28,1 + x28,2 + x28,3 = 1
x29,1 + x29,2 = 1
x30,2 = 1
x31,2 = 1
x32,1 = 1
x33,1 = 1
x13,1 + x28,1 + x29,1 + x32,1 + x33,1 - M2 <= 0
x10,2 + x13,2 + x25,2 + x28,2 + x29,2 + x30,2 + x31,2 - M2 <= 0
x10,3 + x13,3 + x25,3 + x28,3 - M2 <= 0
x21,3 + x21,2 + x24,3 + x24,2 + x26,3 + x26,2 + x27,3 + x27,2 - M1 <= 0
x10,4 + x13,4 + x20,4 - M2 <= 0
x21,4 + x21,3 + x24,4 + x24,3 + x26,4 + x26,3 + x27,4 + x27,3 - M1 <= 0
x10,5 + x13,5 + x17,5 + x20,5 + x22,5 + x23,5 - M2 <= 0
x21,5 + x21,4 + x24,5 + x24,4 - M1 <= 0
x10,6 + x13,6 + x17,6 + x18,6 + x19,6 + x20,6 - M2 <= 0
x10,7 + x13,7 + x15,7 + x16,7 - M2 <= 0
x10,8 + x13,8 - M2 <= 0
x12,8 + x12,7 + x14,8 + x14,7 - M1 <= 0
x10,9 + x13,9 - M2 <= 0
x12,9 + x12,8 + x14,9 + x14,8 - M1 <= 0
x9,10 + x10,10 + x11,10 - M2 <= 0
x7,11 + x8,11 - M2 <= 0
x5,12 + x5,11 + x6,12 + x6,11 - M1 <= 0
x5,13 + x5,12 + x6,13 + x6,12 - M1 <= 0
x1,15 + x3,15 - M2 <= 0
x1,16 + x2,16 - M2 <= 0
x0,17 + x1,17 - M2 <= 0
16 x2,16 - 17 x0,17 <= -1
15 x3,15 - 16 x2,16 <= -1
14 x4,14 - 15 x1,15 - 16 x1,16 - 17 x1,17 <= -1
14 x4,14 - 15 x3,15 <= -1
12 x5,12 - 14 x4,14 <= -2
12 x6,12 - 14 x4,14 <= -2
11 x7,11 - 16 x2,16 <= -1
11 x7,11 - 12 x5,12 <= -1
11 x8,11 - 15 x1,15 - 16 x1,16 - 17 x1,17 <= -1
11 x8,11 - 12 x6,12 <= -1
10 x9,10 - 16 x2,16 <= -1
10 x9,10 - 11 x7,11 <= -1
2 x10,2 + 3 x10,3 + 4 x10,4 + 5 x10,5 + 6 x10,6 + 7 x10,7 + 8 x10,8 + 9 x10,9 + 10 x10,10 - 14 x4,14 <= -1
2 x10,2 + 3 x10,3 + 4 x10,4 + 5 x10,5 + 6 x10,6 + 7 x10,7 + 8 x10,8 + 9 x10,9 + 10 x10,10 - 11 x7,11 <= -1
10 x11,10 - 15 x1,15 - 16 x1,16 - 17 x1,17 <= -1
10 x11,10 - 11 x8,11 <= -1
8 x12,8 - 10 x9,10 <= -2
1 x13,1 + 2 x13,2 + 3 x13,3 + 4 x13,4 + 5 x13,5 + 6 x13,6 + 7 x13,7 + 8 x13,8 + 9 x13,9 - 11 x8,11 <= -1
1 x13,1 + 2 x13,2 + 3 x13,3 + 4 x13,4 + 5 x13,5 + 6 x13,6 + 7 x13,7 + 8 x13,8 + 9 x13,9 - 2 x10,2 - 3 x10,3 - 4 x10,4 - 5 x10,5 - 6 x10,6 - 7 x10,7 - 8 x10,8 - 9 x10,9 - 10 x10,10 <= -1
8 x14,8 - 10 x11,10 <= -2
7 x15,7 - 17 x0,17 <= -1
7 x15,7 - 8 x12,8 <= -1
7 x16,7 - 8 x14,8 <= -1
5 x17,5 + 6 x17,6 - 17 x0,17 <= -1
5 x17,5 + 6 x17,6 - 7 x15,7 <= -1
6 x18,6 - 11 x7,11 <= -1
6 x18,6 - 7 x15,7 <= -1
6 x19,6 - 11 x8,11 <= -1
6 x19,6 - 7 x16,7 <= -1
4 x20,4 + 5 x20,5 + 6 x20,6 - 7 x16,7 <= -1
3 x21,3 + 4 x21,4 - 5 x17,5 - 6 x17,6 <= -2
5 x22,5 - 6 x18,6 <= -1
5 x23,5 - 6 x19,6 <= -1
2 x24,2 + 3 x24,3 + 4 x24,4 - 4 x20,4 - 5 x20,5 - 6 x20,6 <= -2
2 x25,2 + 3 x25,3 - 3 x21,3 - 4 x21,4 <= -1
3 x26,3 - 5 x22,5 <= -2
3 x27,3 - 5 x23,5 <= -2
1 x28,1 + 2 x28,2 + 3 x28,3 - 7 x16,7 <= -1
1 x28,1 + 2 x28,2 + 3 x28,3 - 2 x24,2 - 3 x24,3 - 4 x24,4 <= -1
1 x29,1 + 2 x29,2 - 7 x15,7 <= -1
1 x29,1 + 2 x29,2 - 2 x25,2 - 3 x25,3 <= -1
2 x30,2 - 3 x26,3 <= -1
2 x31,2 - 3 x27,3 <= -1
1 x32,1 - 5 x22,5 <= -1
1 x32,1 - 2 x30,2 <= -1
1 x33,1 - 5 x23,5 <= -1
1 x33,1 - 2 x31,2 <= -1
Bounds
0 <= x0,17 <= 1
0 <= x1,15 <= 1
0 <= x1,16 <= 1
0 <= x1,17 <= 1
0 <= x2,16 <= 1
0 <= x3,15 <= 1
0 <= x4,14 <= 1
0 <= x5,12 <= 1
0 <= x6,12 <= 1
0 <= x7,11 <= 1
0 <= x8,11 <= 1
0 <= x9,10 <= 1
0 <= x10,2 <= 1
0 <= x10,3 <= 1
0 <= x10,4 <= 1
0 <= x10,5 <= 1
0 <= x10,6 <= 1
0 <= x10,7 <= 1
0 <= x10,8 <= 1
0 <= x10,9 <= 1
0 <= x10,10 <= 1
0 <= x11,10 <= 1
0 <= x12,8 <= 1
0 <= x13,1 <= 1
0 <= x13,2 <= 1
0 <= x13,3 <= 1
0 <= x13,4 <= 1
0 <= x13,5 <= 1
0 <= x13,6 <= 1
0 <= x13,7 <= 1
0 <= x13,8 <= 1
0 <= x13,9 <= 1
0 <= x14,8 <= 1
0 <= x15,7 <= 1
0 <= x16,7 <= 1
0 <= x17,5 <= 1
0 <= x17,6 <= 1
0 <= x18,6 <= 1
0 <= x19,6 <= 1
0 <= x20,4 <= 1
0 <= x20,5 <= 1
0 <= x20,6 <= 1
0 <= x21,3 <= 1
0 <= x21,4 <= 1
0 <= x22,5 <= 1
0 <= x23,5 <= 1
0 <= x24,2 <= 1
0 <= x24,3 <= 1
0 <= x24,4 <= 1
0 <= x25,2 <= 1
0 <= x25,3 <= 1
0 <= x26,3 <= 1
0 <= x27,3 <= 1
0 <= x28,1 <= 1
0 <= x28,2 <= 1
0 <= x28,3 <= 1
0 <= x29,1 <= 1
0 <= x29,2 <= 1
0 <= x30,2 <= 1
0 <= x31,2 <= 1
0 <= x32,1 <= 1
0 <= x33,1 <= 1
M1 >= 1
M2 >= 1
Generals
x0,17
x1,15
x1,16
x1,17
x2,16
x3,15
x4,14
x5,12
x6,12
x7,11
x8,11
x9,10
x10,2
x10,3
x10,4
x10,5
x10,6
x10,7
x10,8
x10,9
x10,10
x11,10
x12,8
x13,1
x13,2
x13,3
x13,4
x13,5
x13,6
x13,7
x13,8
x13,9
x14,8
x15,7
x16,7
x17,5
x17,6
x18,6
x19,6
x20,4
x20,5
x20,6
x21,3
x21,4
x22,5
x23,5
x24,2
x24,3
x24,4
x25,2
x25,3
x26,3
x27,3
x28,1
x28,2
x28,3
x29,1
x29,2
x30,2
x31,2
x32,1
x33,1
M1
M2
End
