TC_ILP/ewf_1.0.sol
<?xml version = "1.0" encoding="UTF-8" standalone="yes"?>
<CPLEXSolution version="1.2">
 <header
   problemName="ewf_1.0.lp"
   solutionName="incumbent"
   solutionIndex="-1"
   objectiveValue="6"
   solutionTypeValue="3"
   solutionTypeString="primal"
   solutionStatusValue="101"
   solutionStatusString="integer optimal solution"
   solutionMethodString="mip"
   primalFeasible="1"
   dualFeasible="1"
   MIPNodes="0"
   MIPIterations="6"
   writeLevel="1"/>
 <quality
   epInt="1.0000000000000001e-05"
   epRHS="9.9999999999999995e-07"
   maxIntInfeas="0"
   maxPrimalInfeas="0"
   maxX="3"
   maxSlack="10"/>
 <linearConstraints>
  <constraint name="c1" index="0" slack="0"/>
  <constraint name="c2" index="1" slack="0"/>
  <constraint name="c3" index="2" slack="0"/>
  <constraint name="c4" index="3" slack="0"/>
  <constraint name="c5" index="4" slack="0"/>
  <constraint name="c6" index="5" slack="0"/>
  <constraint name="c7" index="6" slack="0"/>
  <constraint name="c8" index="7" slack="0"/>
  <constraint name="c9" index="8" slack="0"/>
  <constraint name="c10" index="9" slack="0"/>
  <constraint name="c11" index="10" slack="0"/>
  <constraint name="c12" index="11" slack="0"/>
  <constraint name="c13" index="12" slack="0"/>
  <constraint name="c14" index="13" slack="0"/>
  <constraint name="c15" index="14" slack="0"/>
  <constraint name="c16" index="15" slack="0"/>
  <constraint name="c17" index="16" slack="0"/>
  <constraint name="c18" index="17" slack="0"/>
  <constraint name="c19" index="18" slack="0"/>
  <constraint name="c20" index="19" slack="0"/>
  <constraint name="c21" index="20" slack="0"/>
  <constraint name="c22" index="21" slack="0"/>
  <constraint name="c23" index="22" slack="0"/>
  <constraint name="c24" index="23" slack="0"/>
  <constraint name="c25" index="24" slack="0"/>
  <constraint name="c26" index="25" slack="0"/>
  <constraint name="c27" index="26" slack="0"/>
  <constraint name="c28" index="27" slack="0"/>
  <constraint name="c29" index="28" slack="0"/>
  <constraint name="c30" index="29" slack="0"/>
  <constraint name="c31" index="30" slack="0"/>
  <constraint name="c32" index="31" slack="0"/>
  <constraint name="c33" index="32" slack="0"/>
  <constraint name="c34" index="33" slack="0"/>
  <constraint name="c35" index="34" slack="0"/>
  <constraint name="c36" index="35" slack="0"/>
  <constraint name="c37" index="36" slack="1"/>
  <constraint name="c38" index="37" slack="0"/>
  <constraint name="c39" index="38" slack="2"/>
  <constraint name="c40" index="39" slack="0"/>
  <constraint name="c41" index="40" slack="1"/>
  <constraint name="c42" index="41" slack="2"/>
  <constraint name="c43" index="42" slack="0"/>
  <constraint name="c44" index="43" slack="1"/>
  <constraint name="c45" index="44" slack="3"/>
  <constraint name="c46" index="45" slack="1"/>
  <constraint name="c47" index="46" slack="3"/>
  <constraint name="c48" index="47" slack="1"/>
  <constraint name="c49" index="48" slack="0"/>
  <constraint name="c50" index="49" slack="1"/>
  <constraint name="c51" index="50" slack="1"/>
  <constraint name="c52" index="51" slack="1"/>
  <constraint name="c53" index="52" slack="2"/>
  <constraint name="c54" index="53" slack="2"/>
  <constraint name="c55" index="54" slack="1"/>
  <constraint name="c56" index="55" slack="0"/>
  <constraint name="c57" index="56" slack="0"/>
  <constraint name="c58" index="57" slack="2"/>
  <constraint name="c59" index="58" slack="0"/>
  <constraint name="c60" index="59" slack="0"/>
  <constraint name="c61" index="60" slack="0"/>
  <constraint name="c62" index="61" slack="4"/>
  <constraint name="c63" index="62" slack="0"/>
  <constraint name="c64" index="63" slack="5"/>
  <constraint name="c65" index="64" slack="0"/>
  <constraint name="c66" index="65" slack="5"/>
  <constraint name="c67" index="66" slack="0"/>
  <constraint name="c68" index="67" slack="3"/>
  <constraint name="c69" index="68" slack="0"/>
  <constraint name="c70" index="69" slack="6"/>
  <constraint name="c71" index="70" slack="0"/>
  <constraint name="c72" index="71" slack="0"/>
  <constraint name="c73" index="72" slack="7"/>
  <constraint name="c74" index="73" slack="6"/>
  <constraint name="c75" index="74" slack="0"/>
  <constraint name="c76" index="75" slack="9"/>
  <constraint name="c77" index="76" slack="0"/>
  <constraint name="c78" index="77" slack="0"/>
  <constraint name="c79" index="78" slack="10"/>
  <constraint name="c80" index="79" slack="0"/>
  <constraint name="c81" index="80" slack="4"/>
  <constraint name="c82" index="81" slack="0"/>
  <constraint name="c83" index="82" slack="4"/>
  <constraint name="c84" index="83" slack="0"/>
  <constraint name="c85" index="84" slack="2"/>
  <constraint name="c86" index="85" slack="0"/>
  <constraint name="c87" index="86" slack="0"/>
  <constraint name="c88" index="87" slack="0"/>
  <constraint name="c89" index="88" slack="0"/>
  <constraint name="c90" index="89" slack="0"/>
  <constraint name="c91" index="90" slack="0"/>
  <constraint name="c92" index="91" slack="0"/>
  <constraint name="c93" index="92" slack="5"/>
  <constraint name="c94" index="93" slack="0"/>
  <constraint name="c95" index="94" slack="4"/>
  <constraint name="c96" index="95" slack="0"/>
  <constraint name="c97" index="96" slack="0"/>
  <constraint name="c98" index="97" slack="0"/>
  <constraint name="c99" index="98" slack="3"/>
  <constraint name="c100" index="99" slack="0"/>
  <constraint name="c101" index="100" slack="3"/>
  <constraint name="c102" index="101" slack="0"/>
 </linearConstraints>
 <variables>
  <variable name="M1" index="0" value="3"/>
  <variable name="M2" index="1" value="3"/>
  <variable name="x0,17" index="2" value="1"/>
  <variable name="x1,15" index="3" value="0"/>
  <variable name="x1,16" index="4" value="0"/>
  <variable name="x1,17" index="5" value="1"/>
  <variable name="x2,16" index="6" value="1"/>
  <variable name="x3,15" index="7" value="1"/>
  <variable name="x4,14" index="8" value="1"/>
  <variable name="x5,12" index="9" value="1"/>
  <variable name="x6,12" index="10" value="1"/>
  <variable name="x7,11" index="11" value="1"/>
  <variable name="x8,11" index="12" value="1"/>
  <variable name="x9,10" index="13" value="1"/>
  <variable name="x10,2" index="14" value="0"/>
  <variable name="x10,3" index="15" value="0"/>
  <variable name="x10,4" index="16" value="0"/>
  <variable name="x10,5" index="17" value="0"/>
  <variable name="x10,6" index="18" value="0"/>
  <variable name="x10,7" index="19" value="0"/>
  <variable name="x10,8" index="20" value="0"/>
  <variable name="x10,9" index="21" value="0"/>
  <variable name="x10,10" index="22" value="1"/>
  <variable name="x11,10" index="23" value="1"/>
  <variable name="x12,8" index="24" value="1"/>
  <variable name="x13,1" index="25" value="0"/>
  <variable name="x13,2" index="26" value="0"/>
  <variable name="x13,3" index="27" value="1"/>
  <variable name="x13,4" index="28" value="-0"/>
  <variable name="x13,5" index="29" value="0"/>
  <variable name="x13,6" index="30" value="0"/>
  <variable name="x13,7" index="31" value="-0"/>
  <variable name="x13,8" index="32" value="-0"/>
  <variable name="x13,9" index="33" value="0"/>
  <variable name="x14,8" index="34" value="1"/>
  <variable name="x15,7" index="35" value="1"/>
  <variable name="x16,7" index="36" value="1"/>
  <variable name="x17,5" index="37" value="0"/>
  <variable name="x17,6" index="38" value="1"/>
  <variable name="x18,6" index="39" value="1"/>
  <variable name="x19,6" index="40" value="1"/>
  <variable name="x20,4" index="41" value="1"/>
  <variable name="x20,5" index="42" value="-0"/>
  <variable name="x20,6" index="43" value="0"/>
  <variable name="x21,3" index="44" value="0"/>
  <variable name="x21,4" index="45" value="1"/>
  <variable name="x22,5" index="46" value="1"/>
  <variable name="x23,5" index="47" value="1"/>
  <variable name="x24,2" index="48" value="1"/>
  <variable name="x24,3" index="49" value="-0"/>
  <variable name="x24,4" index="50" value="0"/>
  <variable name="x25,2" index="51" value="0"/>
  <variable name="x25,3" index="52" value="1"/>
  <variable name="x26,3" index="53" value="1"/>
  <variable name="x27,3" index="54" value="1"/>
  <variable name="x28,1" index="55" value="1"/>
  <variable name="x28,2" index="56" value="0"/>
  <variable name="x28,3" index="57" value="-0"/>
  <variable name="x29,1" index="58" value="0"/>
  <variable name="x29,2" index="59" value="1"/>
  <variable name="x30,2" index="60" value="1"/>
  <variable name="x31,2" index="61" value="1"/>
  <variable name="x32,1" index="62" value="1"/>
  <variable name="x33,1" index="63" value="1"/>
  <variable name="x21,2" index="64" value="0"/>
  <variable name="x26,2" index="65" value="0"/>
  <variable name="x27,2" index="66" value="0"/>
  <variable name="x26,4" index="67" value="0"/>
  <variable name="x27,4" index="68" value="0"/>
  <variable name="x21,5" index="69" value="0"/>
  <variable name="x24,5" index="70" value="0"/>
  <variable name="x12,7" index="71" value="0"/>
  <variable name="x14,7" index="72" value="0"/>
  <variable name="x12,9" index="73" value="0"/>
  <variable name="x14,9" index="74" value="0"/>
  <variable name="x5,11" index="75" value="0"/>
  <variable name="x6,11" index="76" value="0"/>
  <variable name="x5,13" index="77" value="0"/>
  <variable name="x6,13" index="78" value="0"/>
 </variables>
</CPLEXSolution>
